Route #1: 1 25 36 3 10 38 19 22 4 1
Route #2: 1 26 39 28 20 27 40 1
Route #3: 1 5 6 16 32 23 14 31 8 1
Route #4: 1 12 34 35 7 18 15 30 2 1
Route #5: 1 21 17 41 13 24 1
Route #6: 1 9 37 33 11 29 1
cost 904
